50 10452

171
369
440
344
252
292
471
452
209
80
278
326
411
123
105
65
18
433
299
199
77
128
66
34
298
245
453
310
174
100
396
461
330
247
368
334
368
417
91
412
289
304
296
84
9
391
499
281
164
102
